* ENCODING=ISO-8859-1
NAME          CPLEX
ROWS
 N  obj1    
 G  c1      
 G  c2      
 G  c3      
 G  c4      
 G  c5      
 G  c6      
 G  c7      
 G  c8      
 G  c9      
 G  c10     
 G  c11     
 G  c12     
 G  c13     
 G  c14     
 G  c15     
 G  c16     
 G  c17     
 G  c18     
 G  c19     
 G  c20     
 G  c21     
 G  c22     
 G  c23     
 G  c24     
 G  c25     
 G  c26     
 G  c27     
 G  c28     
 G  c29     
 G  c30     
 G  c31     
 G  c32     
 G  c33     
 G  c34     
 G  c35     
 G  c36     
 G  c37     
 G  c38     
 G  c39     
 G  c40     
 G  c41     
 G  c42     
 G  c43     
 G  c44     
 G  c45     
 G  c46     
 G  c47     
 G  c48     
 G  c49     
 G  c50     
COLUMNS
    MARK0000  'MARKER'                 'INTORG'
    x1        obj1                            1
    x1        c3                            599
    x1        c10                           209
    x1        c20                           429
    x1        c23                           144
    x1        c40                           505
    x1        c44                           657
    x1        c49                           618
    x2        obj1                            1
    x2        c29                           771
    x2        c34                           604
    x2        c37                           391
    x2        c38                           253
    x3        obj1                            1
    x3        c4                            799
    x3        c32                           764
    x3        c36                           418
    x3        c38                           558
    x4        obj1                            1
    x4        c8                            586
    x4        c21                           667
    x4        c22                           459
    x4        c25                           573
    x5        obj1                            1
    x5        c2                            453
    x5        c11                           977
    x5        c28                           142
    x5        c49                           531
    x6        obj1                            1
    x6        c2                            261
    x6        c12                           585
    x6        c27                           280
    x7        obj1                            1
    x7        c6                            699
    x7        c9                            438
    x7        c10                           167
    x7        c34                           560
    x8        obj1                            1
    x8        c7                            741
    x8        c23                           997
    x8        c28                           130
    x8        c37                           408
    x8        c39                           456
    x8        c40                           546
    x9        obj1                            1
    x9        c6                            717
    x9        c24                           713
    x9        c28                           749
    x10       obj1                            1
    x10       c3                            398
    x10       c6                            570
    x10       c13                           656
    x10       c30                           901
    x10       c34                           698
    x10       c42                           923
    x11       obj1                            1
    x11       c43                           257
    x12       obj1                            1
    x12       c2                            548
    x12       c3                            106
    x12       c4                            100
    x12       c10                           291
    x12       c14                           257
    x12       c42                           183
    x13       obj1                            1
    x13       c7                            792
    x13       c14                           276
    x13       c19                           129
    x13       c28                           158
    x13       c31                           631
    x13       c40                           716
    x14       obj1                            1
    x14       c12                           254
    x14       c23                           611
    x14       c26                           161
    x14       c41                           634
    x15       obj1                            1
    x15       c8                            992
    x15       c16                           633
    x15       c34                           822
    x15       c45                           707
    x16       obj1                            1
    x16       c1                            681
    x16       c22                           746
    x16       c36                           103
    x16       c50                           807
    x17       obj1                            1
    x17       c17                           958
    x17       c34                           421
    x17       c39                           174
    x17       c45                           204
    x18       obj1                            1
    x18       c8                            473
    x18       c22                           481
    x18       c26                           172
    x18       c45                           748
    x19       obj1                            1
    x19       c14                           731
    x19       c29                           117
    x19       c33                           382
    x19       c43                           519
    x20       obj1                            1
    x20       c1                            856
    x20       c9                            692
    x20       c10                           390
    x20       c11                           558
    x20       c20                           671
    x20       c45                           968
    x20       c50                           125
    x21       obj1                            1
    x21       c28                           571
    x22       obj1                            1
    x22       c4                            687
    x22       c11                           880
    x22       c12                           863
    x22       c50                           313
    x23       obj1                            1
    x23       c5                            610
    x23       c12                           299
    x23       c22                           592
    x23       c25                           677
    x23       c50                           303
    x24       obj1                            1
    x24       c2                            707
    x24       c18                           499
    x24       c32                           686
    x24       c39                           923
    x25       obj1                            1
    x25       c10                           142
    x25       c17                           737
    x25       c22                           281
    x25       c26                           895
    x25       c42                           267
    x25       c45                           134
    x25       c50                           863
    x26       obj1                            1
    x26       c5                            133
    x26       c8                            865
    x26       c21                           899
    x26       c49                           802
    x27       obj1                            1
    x27       c5                            829
    x27       c12                           302
    x27       c15                           174
    x27       c17                           154
    x27       c18                           818
    x27       c46                           267
    x28       obj1                            1
    x28       c5                            618
    x28       c7                            422
    x28       c9                            254
    x28       c11                           415
    x28       c16                           133
    x28       c24                           164
    x28       c32                           783
    x28       c44                           927
    x28       c50                           841
    x29       obj1                            1
    x29       c3                            618
    x29       c9                            756
    x29       c10                           452
    x29       c11                           528
    x29       c13                           691
    x29       c20                           352
    x29       c35                           572
    x29       c47                           245
    x30       obj1                            1
    x30       c18                           176
    x30       c20                           601
    x30       c29                           878
    x30       c35                           713
    x31       obj1                            1
    x31       c15                           791
    x31       c17                           847
    x31       c18                           334
    x31       c19                           629
    x31       c30                           868
    x31       c31                           607
    x31       c37                           554
    x31       c42                           638
    x31       c47                           224
    x32       obj1                            1
    x32       c7                            694
    x32       c16                           893
    x32       c21                           851
    x32       c24                           664
    x32       c33                           889
    x32       c37                           545
    x32       c46                           924
    x33       obj1                            1
    x33       c4                            599
    x33       c18                           914
    x33       c24                           215
    x33       c26                           901
    x33       c31                           782
    x34       obj1                            1
    x34       c11                           882
    x34       c25                           875
    x34       c34                           739
    x34       c35                           478
    x35       obj1                            1
    x35       c5                            657
    x35       c8                            939
    x35       c9                            340
    x35       c12                           744
    x35       c29                           258
    x35       c34                           954
    x35       c48                           679
    x36       obj1                            1
    x36       c6                            100
    x36       c12                           358
    x36       c15                           325
    x36       c22                           397
    x36       c32                           832
    x36       c41                           607
    x36       c49                           427
    x37       obj1                            1
    x37       c21                           869
    x37       c26                           992
    x37       c38                           972
    x38       obj1                            1
    x38       c3                            221
    x38       c9                            190
    x38       c18                           392
    x38       c19                           210
    x38       c27                           445
    x38       c29                           949
    x39       obj1                            1
    x39       c23                           390
    x39       c40                           418
    x39       c45                           500
    x39       c46                           853
    x39       c49                           268
    x40       obj1                            1
    x40       c4                            379
    x40       c13                           457
    x40       c17                           886
    x40       c24                           493
    x40       c25                           178
    x40       c28                           215
    x40       c30                           441
    x40       c44                           811
    x40       c47                           231
    x40       c49                           944
    x41       obj1                            1
    x41       c8                            888
    x41       c23                           339
    x42       obj1                            1
    x42       c2                            788
    x42       c4                            220
    x42       c6                            545
    x42       c16                           130
    x42       c18                           392
    x42       c36                           941
    x42       c38                           152
    x42       c49                           148
    x43       obj1                            1
    x43       c7                            415
    x43       c8                            422
    x43       c23                           532
    x43       c27                           441
    x43       c30                           793
    x43       c32                           781
    x44       obj1                            1
    x44       c17                           189
    x44       c26                           717
    x45       obj1                            1
    x45       c9                            779
    x45       c30                           992
    x45       c31                           533
    x45       c33                           546
    x45       c40                           936
    x46       obj1                            1
    x46       c1                            842
    x46       c13                           124
    x46       c25                           960
    x46       c26                           464
    x46       c38                           203
    x46       c40                           139
    x46       c48                           812
    x47       obj1                            1
    x47       c7                            876
    x47       c10                           737
    x48       obj1                            1
    x48       c23                           506
    x48       c28                           238
    x48       c41                           434
    x48       c43                           217
    x49       obj1                            1
    x49       c4                            910
    x49       c13                           210
    x49       c19                           426
    x49       c30                           352
    x49       c35                           339
    x49       c42                           983
    x49       c46                           626
    x49       c48                           825
    x50       obj1                            1
    x50       c5                            333
    x50       c20                           125
    x50       c21                           657
    x50       c33                           565
    x50       c40                           282
    x50       c48                           870
    MARK0001  'MARKER'                 'INTEND'
RHS
    rhs       c1                           1190
    rhs       c2                           1379
    rhs       c3                            971
    rhs       c4                           1847
    rhs       c5                           1590
    rhs       c6                           1316
    rhs       c7                           1970
    rhs       c8                           2583
    rhs       c9                           1725
    rhs       c10                          1194
    rhs       c11                          2120
    rhs       c12                          1703
    rhs       c13                          1069
    rhs       c14                           632
    rhs       c15                           645
    rhs       c16                           895
    rhs       c17                          1886
    rhs       c18                          1763
    rhs       c19                           697
    rhs       c20                          1089
    rhs       c21                          1972
    rhs       c22                          1478
    rhs       c23                          1760
    rhs       c24                          1125
    rhs       c25                          1632
    rhs       c26                          2151
    rhs       c27                           583
    rhs       c28                          1102
    rhs       c29                          1487
    rhs       c30                          2174
    rhs       c31                          1277
    rhs       c32                          1923
    rhs       c33                          1191
    rhs       c34                          2399
    rhs       c35                          1051
    rhs       c36                           731
    rhs       c37                           949
    rhs       c38                          1069
    rhs       c39                           777
    rhs       c40                          1771
    rhs       c41                           838
    rhs       c42                          1497
    rhs       c43                           497
    rhs       c44                          1198
    rhs       c45                          1631
    rhs       c46                          1335
    rhs       c47                           350
    rhs       c48                          1593
    rhs       c49                          1869
    rhs       c50                          1626
BOUNDS
 LI bnd       x1        0
 LI bnd       x2        0
 LI bnd       x3        0
 LI bnd       x4        0
 LI bnd       x5        0
 LI bnd       x6        0
 LI bnd       x7        0
 LI bnd       x8        0
 LI bnd       x9        0
 LI bnd       x10       0
 LI bnd       x11       0
 LI bnd       x12       0
 LI bnd       x13       0
 LI bnd       x14       0
 LI bnd       x15       0
 LI bnd       x16       0
 LI bnd       x17       0
 LI bnd       x18       0
 LI bnd       x19       0
 LI bnd       x20       0
 LI bnd       x21       0
 LI bnd       x22       0
 LI bnd       x23       0
 LI bnd       x24       0
 LI bnd       x25       0
 LI bnd       x26       0
 LI bnd       x27       0
 LI bnd       x28       0
 LI bnd       x29       0
 LI bnd       x30       0
 LI bnd       x31       0
 LI bnd       x32       0
 LI bnd       x33       0
 LI bnd       x34       0
 LI bnd       x35       0
 LI bnd       x36       0
 LI bnd       x37       0
 LI bnd       x38       0
 LI bnd       x39       0
 LI bnd       x40       0
 LI bnd       x41       0
 LI bnd       x42       0
 LI bnd       x43       0
 LI bnd       x44       0
 LI bnd       x45       0
 LI bnd       x46       0
 LI bnd       x47       0
 LI bnd       x48       0
 LI bnd       x49       0
 LI bnd       x50       0
ENDATA
